(declare-const X String)
; ^[9][7|8][1|0][0-9]{2}$
(assert (str.in_re X (re.++ (str.to_re "9") (re.union (str.to_re "7") (str.to_re "|") (str.to_re "8")) (re.union (str.to_re "1") (str.to_re "|") (str.to_re "0")) ((_ re.loop 2 2) (re.range "0" "9")) (str.to_re "\u{a}"))))
; /css\s*?\x28\s*?[\x22\x27]margin[^\x29]*?[\x22\x27]\s*?\x2c\s*?[\x22\x27]\d{12,}\s*?px/smi
(assert (str.in_re X (re.++ (str.to_re "/css") (re.* (re.union (str.to_re " ") (str.to_re "\u{9}") (str.to_re "\u{a}") (str.to_re "\u{c}") (str.to_re "\u{d}"))) (str.to_re "(") (re.* (re.union (str.to_re " ") (str.to_re "\u{9}") (str.to_re "\u{a}") (str.to_re "\u{c}") (str.to_re "\u{d}"))) (re.union (str.to_re "\u{22}") (str.to_re "'")) (str.to_re "margin") (re.* (re.comp (str.to_re ")"))) (re.union (str.to_re "\u{22}") (str.to_re "'")) (re.* (re.union (str.to_re " ") (str.to_re "\u{9}") (str.to_re "\u{a}") (str.to_re "\u{c}") (str.to_re "\u{d}"))) (str.to_re ",") (re.* (re.union (str.to_re " ") (str.to_re "\u{9}") (str.to_re "\u{a}") (str.to_re "\u{c}") (str.to_re "\u{d}"))) (re.union (str.to_re "\u{22}") (str.to_re "'")) (re.* (re.union (str.to_re " ") (str.to_re "\u{9}") (str.to_re "\u{a}") (str.to_re "\u{c}") (str.to_re "\u{d}"))) (str.to_re "px/smi\u{a}") ((_ re.loop 12 12) (re.range "0" "9")) (re.* (re.range "0" "9")))))
; 3ASoftwarephpinfoSpy\x2EnbdMailerX-Mailer\x3A195\.225\.Subject\x3a
(assert (str.in_re X (str.to_re "3ASoftwarephpinfoSpy.nbdMailerX-Mailer:\u{13}195.225.Subject:\u{a}")))
; www\.iggsey\.com\sX-Mailer\x3a[^\n\r]*on\x3Acom\x3E2\x2E41Client
(assert (not (str.in_re X (re.++ (str.to_re "www.iggsey.com") (re.union (str.to_re " ") (str.to_re "\u{9}") (str.to_re "\u{a}") (str.to_re "\u{c}") (str.to_re "\u{d}")) (str.to_re "X-Mailer:\u{13}") (re.* (re.union (str.to_re "\u{a}") (str.to_re "\u{d}"))) (str.to_re "on:com>2.41Client\u{a}")))))
(check-sat)

(exit)
